Route #1: 1 73 68 36 13 51 48 53 37 52 46 38 32 45 41 40 14 72 8 1 
Route #2: 1 74 10 12 69 75 5 9 71 3 47 54 49 42 39 6 7 1 
Route #3: 1 55 56 58 57 60 62 59 67 64 50 30 34 26 15 4 11 1 
Route #4: 1 1 70 65 25 27 33 1 
Route #5: 1 2 17 35 31 21 22 43 1 
Route #6: 1 44 19 1 
Route #7: 1 61 63 16 24 1 
Route #8: 1 23 28 18 1 
Route #9: 1 29 20 66 1 

Cost 2576.35
Time 0.6932


 * Another infos *

 Iterations: 76 Time: 0.6932 sec - 0.0116 min - 0.0002 horas
0.0000 h 0.0116 min
Problem dimension: 76
